0000000000000000
0000000000000000
0000000000000000
0011110000000000
0000011000000000
0000001100000000
0000000110000000
0000001111000000
0000011001100000
0000110000110000
0001100000011000
0011000000001100
0000000000000000
0000000000000000
0000000000000000
0000000000000000
